
18 6 21 22 21 12 21 28 22 28 29 28 23 3 28 18 3 20 22 24 18 16 5 24 23 18 24 6 29 5 6 26 26 16 18 6 20 9 24 16 18 9 6 26 9 26 3 21 6 20 24 16 16 16 20 6 18 9 18 25 29 0 18 20 3 25 5 26 6 12 18 12 6 9 23 23 20 5 9 16 23 0 9 25 29 20 6 5 24 25 28 6 25 25 0 3 28 6 0 28 28 16 25 18 29 0 29 24 22 3 26 29 18 12 12 20 28 25 0 9 26 25 28 26 26 16 21 12 26 0 28 24 25 20 23 9 3 3 28 20 12 22 12 25 25 5 24 16 22 25 24 0 23 0 20 28 5 16 3 3 3 0 23 24 5 24 5 29 3 21 5 20 28 23 26 21 0 20 29 20 5 21 21 6 12 9 28 23 0 21 21 21 6 29 25 12 25 21 23 6 
